p cnf 26 83
-1 -2 -13 -14 -15 -16 -17 -18 -20 0
-1 -12 -13 -14 -15 -16 -17 -18 -20 0
-2 -13 -14 -15 -16 -17 -18 -19 -22 0
-2 -13 -14 -15 -16 -17 -18 -19 -21 0
-2 -4 -5 -16 -17 -18 -19 -21 -24 0
-2 -4 -5 -7 -18 -19 -21 -24 -27 0
-2 -4 -5 -7 -8 -19 -21 -24 -27 0
-2 -4 -5 -7 -9 -19 -21 -24 -26 0
-2 -4 -5 -6 -9 -19 -21 -24 -25 -26 0
-2 -4 -5 -8 -19 -21 -24 -25 -27 0
-2 -4 -6 -8 -19 -21 -23 -25 -27 0
-2 -6 -8 -13 -19 -22 -25 -27 0
-2 -8 -13 -14 -15 -19 -22 -24 -27 0
-2 -6 -8 -13 -15 -19 -22 -24 -27 0
-2 -3 -6 -8 -15 -19 -22 -24 -27 0
-2 -3 -8 -14 -15 -19 -22 -24 -27 0
-2 -3 -6 -8 -12 -15 -19 -23 -24 -27 0
-2 -3 -6 -8 -12 -15 -19 -21 -24 -27 0
-2 -3 -6 -9 -12 -15 -19 -23 -26 0
-2 -3 -6 -7 -12 -18 -19 -23 -26 0
-2 -3 -6 -12 -17 -18 -19 -23 -26 0
-2 -3 -6 -9 -12 -19 -23 -25 -26 0
-2 -3 -6 -7 -9 -12 -19 -23 -26 0
-2 -3 -6 -9 -12 -17 -19 -23 -26 0
-2 -3 -6 -9 -12 -16 -19 -23 -26 0
-2 -3 -6 -9 -12 -18 -19 -23 -25 0
-2 -3 -6 -12 -17 -18 -19 -23 -24 0
-2 -3 -6 -12 -17 -18 -19 -23 -25 0
-2 -3 -6 -7 -12 -18 -19 -23 -25 0
-2 -3 -6 -7 -12 -18 -19 -23 -24 -27 0
-2 -3 -6 -7 -12 -16 -18 -19 -23 -27 0
-2 -3 -6 -9 -12 -15 -18 -19 -23 -24 -27 0
-2 -3 -6 -9 -12 -16 -19 -23 -27 0
-2 -3 -6 -8 -12 -16 -19 -23 -27 0
-2 -3 -6 -7 -8 -12 -19 -23 -24 -27 0
-2 -3 -6 -8 -12 -15 -19 -23 -26 -27 0
-2 -3 -6 -7 -8 -12 -19 -23 -26 -27 0
-2 -3 -6 -8 -12 -19 -23 -25 -27 0
-2 -3 -6 -8 -12 -17 -19 -23 -26 0
-2 -3 -6 -8 -12 -15 -18 -19 -23 -26 0
-2 -3 -6 -8 -12 -18 -19 -23 -25 0
-2 -3 -6 -9 -12 -17 -19 -23 -24 -27 0
-2 -3 -6 -12 -16 -17 -18 -19 -23 0
-2 -3 -6 -8 -12 -16 -18 -19 -23 -26 0
-2 -3 -6 -8 -12 -17 -19 -23 -24 -27 0
-2 -6 -8 -12 -13 -17 -19 -24 -27 0
-2 -5 -8 -12 -17 -19 -21 -24 -27 0
-2 -5 -8 -12 -13 -17 -19 -24 -27 0
-2 -5 -8 -11 -17 -19 -22 -24 -27 0
-2 -5 -8 -17 -19 -21 -22 -24 -27 0
-2 -5 -8 -13 -17 -19 -22 -24 -27 0
-2 -5 -8 -14 -17 -19 -21 -24 -27 0
-2 -4 -5 -8 -17 -19 -21 -24 -27 0
-2 -5 -8 -13 -17 -19 -21 -24 -27 0
-2 -5 -8 -13 -17 -19 -20 -24 -27 0
-2 -8 -13 -14 -15 -19 -20 -24 -27 0
-2 -4 -8 -13 -15 -19 -20 -24 -27 0
-2 -7 -8 -13 -14 -19 -20 -24 -27 0
-2 -4 -7 -8 -13 -19 -20 -24 -27 0
-2 -7 -8 -13 -14 -19 -21 -24 -27 0
-2 -7 -8 -13 -14 -19 -22 -24 -27 0
-2 -8 -13 -14 -15 -19 -21 -24 -27 0
-2 -5 -8 -14 -19 -21 -25 -27 0
-2 -5 -8 -14 -16 -19 -21 -23 -27 0
-2 -5 -7 -8 -14 -19 -21 -23 -26 -27 0
-2 -5 -8 -14 -17 -19 -21 -23 -26 0
-2 -5 -8 -14 -18 -19 -21 -25 0
-2 -5 -8 -9 -14 -19 -21 -25 -26 0
-2 -5 -9 -14 -16 -19 -21 -23 -26 0
-2 -5 -7 -9 -14 -19 -21 -23 -26 0
-2 -5 -7 -14 -18 -19 -21 -23 -26 0
-2 -5 -7 -14 -18 -19 -21 -25 0
-2 -5 -7 -14 -15 -18 -19 -21 -26 0
-2 -5 -7 -14 -18 -19 -21 -24 -26 0
-2 -5 -6 -14 -17 -18 -19 -21 -23 -26 0
-2 -5 -14 -16 -17 -18 -19 -21 -23 0
-2 -5 -6 -14 -17 -18 -19 -21 -25 0
-2 -5 -14 -16 -17 -18 -19 -21 -25 0
-2 -5 -6 -14 -17 -18 -19 -21 -24 0
-2 -5 -14 -15 -16 -17 -18 -19 -21 0
-2 -5 -14 -16 -17 -18 -19 -21 -24 0
-2 -5 -6 -14 -15 -17 -18 -19 -21 -26 0
-2 -5 -7 -14 -17 -18 -19 -21 -24 0
